L=18;
no=10;
njo=[8,8,8,9,8,9,9,8,9,8];
djo=[14,17,18,15,13,15,12,15,18,13];
trab=[2,2,2,6,2,12,3,3,3,12,3,6,3,2,6,3,2,6,2,6,2,4,12,4,6,3,3,3,6,3,3,6,2,6,18,2,2,3,4,4,3,2,2,6,18,2,2,6,4,4,2,2,2,6,3,3,3,2,2,2,2,18,6,6,3,6,6,4,2,6,2,6,3,3,2,3,2,6,2,2,6,6,2,18,12,3,3,4,3,2,3,2,18,3,6,18,12,2,6,2,4,6,2,12,6,3,3,3,6,6,3,6,4,2,6,2,2,2,3,3,2,3,3,12,3,6,3,3,6,3,4,6,6,12,12,6,2,4,3,2,4,3,6,3,6,4,4,6,4,6];
nprec=16;
prec=[| 18, 30,
      | 24, 33,
      | 27, 34,
      | 28, 39,
      | 31, 40,
      | 33, 41,
      | 38, 45,
      | 52, 61,
      | 54, 64,
      | 55, 67,
      | 60, 72,
      | 62, 76,
      | 69, 77,
      | 71, 80,
      | 74, 82,
      | 75, 84 |];


%%%%%%%%%%%%%%%%%%%%%%%%%%%%%%%%%%%%%%%%%%%%%%%%%%%%%%%%%%%%%%%%%%%%%%
% 10
%
%  8   1   8  14  61
%  2   2   2   6   2  12   3   3   3  12   3   6   3   2 
%  1   1   1   0   0
%  1   2   2   0   0
%  1   3   3   0   0
%  1   4   4   0   0
%  1   5   5   0   0
%  1   6   6   0   0
%  1   7   7   0   0
%  1   8   8   0   0
%
%  8   9  16  17  74
%  6   3   2   6   2   6   2   4  12   4   6   3   3   3   6   3   3 
%  2   1   9   0   0
%  2   2  10   0   0
%  2   3  11   0   0
%  2   4  12   0   0
%  2   5  13   0   0
%  2   6  14   0   0
%  2   7  15   0   0
%  2   8  16   0   0
%
%  8  17  24  18  92
%  6   2   6  18   2   2   3   4   4   3   2   2   6  18   2   2   6   4 
%  3   1  17   0   0
%  3   2  18   0   1
%      4   6  30
%  3   3  19   0   0
%  3   4  20   0   0
%  3   5  21   0   0
%  3   6  22   0   0
%  3   7  23   0   0
%  3   8  24   0   1
%      4   9  33
%
%  9  25  33  15  63
%  4   2   2   2   6   3   3   3   2   2   2   2  18   6   6 
%  4   1  25   0   0
%  4   2  26   0   0
%  4   3  27   0   1
%      5   1  34
%  4   4  28   0   1
%      5   6  39
%  4   5  29   0   0
%  4   6  30   1   0
%      3   2  18
%  4   7  31   0   1
%      5   7  40
%  4   8  32   0   0
%  4   9  33   1   1
%      3   8  24
%      5   8  41
%
%  8  34  41  13  48
%  3   6   6   4   2   6   2   6   3   3   2   3   2 
%  5   1  34   1   0
%      4   3  27
%  5   2  35   0   0
%  5   3  36   0   0
%  5   4  37   0   0
%  5   5  38   0   1
%      6   4  45
%  5   6  39   1   0
%      4   4  28
%  5   7  40   1   0
%      4   7  31
%  5   8  41   1   0
%      4   9  33
%
%  9  42  50  15  74
%  6   2   2   6   6   2  18  12   3   3   4   3   2   3   2 
%  6   1  42   0   0
%  6   2  43   0   0
%  6   3  44   0   0
%  6   4  45   1   0
%      5   5  38
%  6   5  46   0   0
%  6   6  47   0   0
%  6   7  48   0   0
%  6   8  49   0   0
%  6   9  50   0   0
%
%  9  51  59  12  91
% 18   3   6  18  12   2   6   2   4   6   2  12 
%  7   1  51   0   0
%  7   2  52   0   1
%      8   2  61
%  7   3  53   0   0
%  7   4  54   0   1
%      8   5  64
%  7   5  55   0   1
%      8   8  67
%  7   6  56   0   0
%  7   7  57   0   0
%  7   8  58   0   0
%  7   9  59   0   0
%
%  8  60  67  15  57
%  6   3   3   3   6   6   3   6   4   2   6   2   2   2   3 
%  8   1  60   0   1
%      9   5  72
%  8   2  61   1   0
%      7   2  52
%  8   3  62   0   1
%      9   9  76
%  8   4  63   0   0
%  8   5  64   1   0
%      7   4  54
%  8   6  65   0   0
%  8   7  66   0   0
%  8   8  67   1   0
%      7   5  55
%
%  9  68  76  18  95
%  3   2   3   3  12   3   6   3   3   6   3   4   6   6  12  12   6   2 
%  9   1  68   0   0
%  9   2  69   0   1
%     10   1  77
%  9   3  70   0   0
%  9   4  71   0   1
%     10   4  80
%  9   5  72   1   0
%      8   1  60
%  9   6  73   0   0
%  9   7  74   0   1
%     10   6  82
%  9   8  75   0   1
%     10   8  84
%  9   9  76   1   0
%      8   3  62
%
%  8  77  84  13  55
%  4   3   2   4   3   6   3   6   4   4   6   4   6 
% 10   1  77   1   0
%      9   2  69
% 10   2  78   0   0
% 10   3  79   0   0
% 10   4  80   1   0
%      9   4  71
% 10   5  81   0   0
% 10   6  82   1   0
%      9   7  74
% 10   7  83   0   0
% 10   8  84   1   0
%      9   8  75
%
%200
